n = 56;
k = 4;
roles = [
{f, d},
{d, f},
{f, m},
{g, m},
{d, f},
{m, g},
{f, m},
{d, f},
{g, d},
{m, f},
{d, f},
{g, d},
{g, d},
{g, d},
{g, m},
{g, m},
{m, g},
{m, d},
{m, d},
{f, m},
{m, g},
{f, g},
{d, m},
{m, g},
{d, f},
{m, f},
{f, d},
{g, m},
{f, d},
{m, f},
{g, d},
{m, g},
{g, m},
{f, d},
{m, f},
{g, m},
{d, f},
{m, d},
{m, g},
{f, m},
{f, d},
{d, f},
{f, d},
{g, m},
{m, g},
{g, m},
{d, f},
{m, g},
{m, f},
{m, f},
{g, m},
{g, f},
{g, m},
{m, f},
{g, d},
{f, d}
];
num_pairs = 2;
player1 = [48, 12];
player2 = [33, 29];
